Maximize
  - 1.893179280915 edge_0_1_0_0 - 2.7054 edge_0_2_0_0
   - 1.2679849407199 edge_0_3_0_0 - 3.881693999315 edge_0_4_0_0
   + 0.6355781423729999 edge_0_5_0_0 - 3.4856593725812 edge_0_6_0_0
   - 3.7087384423292 edge_0_8_0_0 - 3.86392 edge_0_10_0_0
   - 4.10509753694 edge_0_12_0_0 - 1.7205869260524 edge_0_13_0_0
   - 3.8940220951191 edge_0_16_0_0 + 0.5611930912326301 edge_1_2_0_0
   + 1.3313617808403 edge_1_3_0_0 + 0.4788877448247054 edge_1_4_0_0
   + 0.7472647267240146 edge_1_5_0_0 - 0.0806902288675062 edge_1_6_0_0
   + 0.1611593736866152 edge_1_7_0_0 - 0.5394027419675661 edge_1_8_0_0
   + 0.227381263034202 edge_1_9_0_0 - 0.4261160706647375 edge_1_10_0_0
   - 0.5305311984321971 edge_1_12_0_0 - 0.291279414988469 edge_1_13_0_0
   - 0.9012508269570803 edge_1_14_0_0 + 1.368281719563153 edge_1_17_0_0
   + 0.8986055709148499 edge_2_1_0_0 + 1.2006598559208 edge_2_3_0_0
   + 0.994697697353062 edge_2_4_0_0 + 2.365218542037341 edge_2_5_0_0
   + 2.0052297593724 edge_2_6_0_0 + 1.058202778580752 edge_2_7_0_0
   + 1.177309364252659 edge_2_8_0_0 + 0.3267491899725 edge_2_9_0_0
   + 0.8053209033614799 edge_2_10_0_0 + 0.5804169303499599 edge_2_12_0_0
   + 0.6864718148587741 edge_2_13_0_0 - 0.1052082617263416 edge_2_14_0_0
   - 0.1378214196877418 edge_2_15_0_0 + 0.0736063507211462 edge_2_16_0_0
   + 0.84445889866492 edge_2_17_0_0 + 2.4245400264156 edge_3_1_0_0
   + 2.72743 edge_3_2_0_0 + 2.3594434826668 edge_3_4_0_0
   + 2.3507077961688 edge_3_5_0_0 + 1.2388797770016 edge_3_6_0_0
   + 1.2000984965075 edge_3_7_0_0 + 1.0303651358229 edge_3_8_0_0
   + 0.894555822645 edge_3_9_0_0 + 0.145456 edge_3_10_0_0
   + 0.034302345458425 edge_3_11_0_0 + 0.5752828964490599 edge_3_12_0_0
   + 1.134890676382134 edge_3_13_0_0 + 0.15215420143014 edge_3_14_0_0
   + 0.00483496717037522 edge_3_15_0_0 + 1.0837788403554 edge_3_16_0_0
   + 3.9691 edge_3_17_0_0 - 1.2039776535046 edge_4_1_0_0
   - 0.6303325624897642 edge_4_2_0_0 - 0.2976936876024 edge_4_3_0_0
   + 0.1867493485785131 edge_4_5_0_0 + 0.1836654065616 edge_4_6_0_0
   + 0.1507015579959515 edge_4_7_0_0 - 0.5331675478887359 edge_4_8_0_0
   - 0.7873687638537362 edge_4_13_0_0 - 0.9506420108167024 edge_4_15_0_0
   + 0.6832447008673116 edge_5_1_0_0 + 0.28597374195208 edge_5_2_0_0
   + 0.6269541675786 edge_5_3_0_0 + 2.356386429296242 edge_5_4_0_0
   + 2.18616743912099 edge_5_6_0_0 + 0.6106337115365814 edge_5_7_0_0
   + 1.729610521005544 edge_5_8_0_0 + 0.9282322941502291 edge_5_9_0_0
   + 0.3437566489124194 edge_5_10_0_0 + 0.1577280578128266 edge_5_11_0_0
   + 0.8570039187205468 edge_5_12_0_0 + 0.1224979689344123 edge_5_13_0_0
   - 0.134190479605177 edge_5_14_0_0 - 0.2706230108884817 edge_5_16_0_0
   + 3.65872356111594 edge_5_17_0_0 - 0.267938107133852 edge_6_1_0_0
   - 0.36009193518344 edge_6_2_0_0 + 0.0864227 edge_6_3_0_0
   + 0.3343405210502354 edge_6_4_0_0 + 0.613923250713555 edge_6_5_0_0
   + 2.2201600719601 edge_6_7_0_0 + 2.3023190330256 edge_6_8_0_0
   + 1.250298711351191 edge_6_9_0_0 + 1.64238 edge_6_10_0_0
   + 0.07609375461281 edge_6_11_0_0 + 1.28782 edge_6_12_0_0
   + 0.620146 edge_6_13_0_0 + 1.495570100717933 edge_6_14_0_0
   + 1.979636348063793 edge_6_15_0_0 + 1.269648412937744 edge_6_16_0_0
   + 1.575488582059204 edge_6_17_0_0 - 0.6885790576847207 edge_7_1_0_0
   - 0.7164823146930001 edge_7_2_0_0 - 0.6112536926309999 edge_7_3_0_0
   - 0.4173445557032758 edge_7_4_0_0 - 0.4876075312448047 edge_7_5_0_0
   - 0.2009248383420226 edge_7_6_0_0 - 0.1427250676719886 edge_7_8_0_0
   - 0.0159620889565084 edge_7_10_0_0 - 0.0364657591071917 edge_8_1_0_0
   + 0.0565313694730468 edge_8_2_0_0 + 0.49988679004746 edge_8_3_0_0
   + 0.3597150157631337 edge_8_4_0_0 + 0.1732490967022815 edge_8_5_0_0
   + 0.7003483991022255 edge_8_6_0_0 + 3.898847002208843 edge_8_7_0_0
   + 1.404176384728457 edge_8_9_0_0 + 3.702905416484661 edge_8_10_0_0
   + 0.5609696286495772 edge_8_11_0_0 + 2.056504128867382 edge_8_12_0_0
   + 1.077613939722294 edge_8_13_0_0 + 0.9376766633149961 edge_8_14_0_0
   + 1.660773781339642 edge_8_15_0_0 - 0.089664169498536 edge_8_16_0_0
   + 1.984861467892215 edge_8_17_0_0 - 1.11353377341202 edge_9_1_0_0
   - 0.9746954074125 edge_9_3_0_0 - 0.9168306505062214 edge_9_5_0_0
   - 0.8670604472440915 edge_9_6_0_0 - 0.1988880425598839 edge_9_7_0_0
   - 0.4763921056131153 edge_9_8_0_0 - 0.299275287811065 edge_9_10_0_0
   + 0.2893853357400116 edge_9_11_0_0 + 0.41067357290678 edge_9_12_0_0
   - 1.204786823967786 edge_10_1_0_0 - 0.48443594186768 edge_10_2_0_0
   + 0.178758 edge_10_3_0_0 + 0.1578169723199229 edge_10_4_0_0
   - 0.38884400176272 edge_10_5_0_0 + 0.6347268476655269 edge_10_6_0_0
   + 1.608332318358755 edge_10_7_0_0 + 3.093604690463827 edge_10_8_0_0
   + 3.175747872517 edge_10_9_0_0 + 0.2372288839353061 edge_10_11_0_0
   + 1.81742 edge_10_12_0_0 + 0.137862 edge_10_13_0_0
   + 0.0099163476674263 edge_10_14_0_0 + 0.2123323434498686 edge_10_15_0_0
   - 0.4113223654066109 edge_10_16_0_0 + 1.101481913434933 edge_10_17_0_0
   + 0.1214641562399705 edge_11_9_0_0 - 0.00658552557873324 edge_11_10_0_0
   + 0.8245515006520828 edge_11_12_0_0 - 0.2364438186197 edge_11_13_0_0
   - 0.7043829885210436 edge_11_14_0_0 - 0.3357135417585644 edge_11_16_0_0
   - 0.1774121097264367 edge_11_17_0_0 - 0.9078960509210614 edge_12_1_0_0
   - 0.9030898916291999 edge_12_2_0_0 + 0.0527331 edge_12_3_0_0
   - 0.2983623234504321 edge_12_4_0_0 - 0.6199221322862399 edge_12_5_0_0
   - 0.396067 edge_12_6_0_0 + 0.1694974574069945 edge_12_7_0_0
   + 0.1790077535087704 edge_12_8_0_0 + 1.0284649168924 edge_12_9_0_0
   + 0.7246685217184861 edge_12_10_0_0 + 3.041236548288976 edge_12_11_0_0
   + 1.979179846757063 edge_12_13_0_0 + 0.4337456723306449 edge_12_14_0_0
   + 0.1191299208617804 edge_12_16_0_0 + 1.413478727868183 edge_12_17_0_0
   + 0.0260948428495763 edge_13_1_0_0 + 0.9659027258795 edge_13_2_0_0
   + 0.5968189781626 edge_13_3_0_0 + 1.778398929789496 edge_13_4_0_0
   + 2.154237448532721 edge_13_5_0_0 + 2.874804512991939 edge_13_6_0_0
   + 1.1015609853446 edge_13_7_0_0 + 0.7772989687267351 edge_13_8_0_0
   + 0.2224003169584817 edge_13_9_0_0 + 1.188658139226992 edge_13_10_0_0
   + 1.166777906344574 edge_13_11_0_0 + 0.6149958450556778 edge_13_12_0_0
   + 0.5785387496190501 edge_13_14_0_0 + 1.634365602370895 edge_13_15_0_0
   + 3.1515736022926 edge_13_16_0_0 + 1.96879 edge_13_17_0_0
   - 0.745083102487794 edge_14_2_0_0 - 0.059939328692244 edge_14_3_0_0
   + 0.0543659951123616 edge_14_4_0_0 - 0.3143689916649381 edge_14_5_0_0
   + 0.7601614130225011 edge_14_6_0_0 + 0.665240564288803 edge_14_8_0_0
   - 1.056107544605301 edge_14_10_0_0 - 0.2666065371979217 edge_14_12_0_0
   + 0.6956323154797536 edge_14_13_0_0 + 0.6305767243498496 edge_14_15_0_0
   + 2.022679060222289 edge_14_16_0_0 + 0.1454266710311815 edge_14_17_0_0
   - 0.5037101308146983 edge_15_2_0_0 - 0.4614626849151007 edge_15_3_0_0
   + 0.3775171210255714 edge_15_4_0_0 - 0.0263009173855319 edge_15_6_0_0
   - 0.3315063154518479 edge_15_8_0_0 - 0.5265692255809074 edge_15_10_0_0
   - 0.2871841058335832 edge_15_12_0_0 + 0.9689320134435817 edge_15_13_0_0
   + 1.612569919689116 edge_15_14_0_0 + 0.3184575438993158 edge_15_16_0_0
   + 0.2850764339463823 edge_15_17_0_0 - 0.5746636070442827 edge_16_1_0_0
   - 0.6515571010567581 edge_16_2_0_0 - 0.3787703396154949 edge_16_3_0_0
   + 0.1984493658047147 edge_16_4_0_0 + 0.2607867816656951 edge_16_5_0_0
   + 3.06130617336309 edge_16_6_0_0 - 1.237725481989371 edge_16_7_0_0
   + 2.205911212511277 edge_16_8_0_0 + 2.096027631486234 edge_16_10_0_0
   + 0.2391625802474019 edge_16_11_0_0 + 1.077808200057992 edge_16_12_0_0
   + 0.7935495128490295 edge_16_13_0_0 + 3.284134818210384 edge_16_14_0_0
   + 4.12071546871503 edge_16_15_0_0 + 0.9484156858614703 edge_16_17_0_0
   - 0.6151557881412156 edge_17_12_0_0 - 1.009439271860801 edge_17_14_0_0
   - 0.3603091530779731 edge_17_16_0_0
Subject To
 one_parent_1: edge_0_1_0_0 + edge_2_1_0_0 + edge_3_1_0_0 + edge_4_1_0_0
   + edge_5_1_0_0 + edge_6_1_0_0 + edge_7_1_0_0 + edge_8_1_0_0
   + edge_9_1_0_0 + edge_10_1_0_0 + edge_12_1_0_0 + edge_13_1_0_0
   + edge_16_1_0_0 = 1
 consume_one_flow_unit_1: flow_0_1_0_0 - flow_1_2_0_0 - flow_1_3_0_0
   - flow_1_4_0_0 - flow_1_5_0_0 - flow_1_6_0_0 - flow_1_7_0_0
   - flow_1_8_0_0 - flow_1_9_0_0 - flow_1_10_0_0 - flow_1_12_0_0
   - flow_1_13_0_0 - flow_1_14_0_0 - flow_1_17_0_0 + flow_2_1_0_0
   + flow_3_1_0_0 + flow_4_1_0_0 + flow_5_1_0_0 + flow_6_1_0_0
   + flow_7_1_0_0 + flow_8_1_0_0 + flow_9_1_0_0 + flow_10_1_0_0
   + flow_12_1_0_0 + flow_13_1_0_0 + flow_16_1_0_0 = 1
 one_parent_2: edge_0_2_0_0 + edge_1_2_0_0 + edge_3_2_0_0 + edge_4_2_0_0
   + edge_5_2_0_0 + edge_6_2_0_0 + edge_7_2_0_0 + edge_8_2_0_0
   + edge_10_2_0_0 + edge_12_2_0_0 + edge_13_2_0_0 + edge_14_2_0_0
   + edge_15_2_0_0 + edge_16_2_0_0 = 1
 consume_one_flow_unit_2: flow_0_2_0_0 + flow_1_2_0_0 - flow_2_1_0_0
   - flow_2_3_0_0 - flow_2_4_0_0 - flow_2_5_0_0 - flow_2_6_0_0
   - flow_2_7_0_0 - flow_2_8_0_0 - flow_2_9_0_0 - flow_2_10_0_0
   - flow_2_12_0_0 - flow_2_13_0_0 - flow_2_14_0_0 - flow_2_15_0_0
   - flow_2_16_0_0 - flow_2_17_0_0 + flow_3_2_0_0 + flow_4_2_0_0
   + flow_5_2_0_0 + flow_6_2_0_0 + flow_7_2_0_0 + flow_8_2_0_0
   + flow_10_2_0_0 + flow_12_2_0_0 + flow_13_2_0_0 + flow_14_2_0_0
   + flow_15_2_0_0 + flow_16_2_0_0 = 1
 one_parent_3: edge_0_3_0_0 + edge_1_3_0_0 + edge_2_3_0_0 + edge_4_3_0_0
   + edge_5_3_0_0 + edge_6_3_0_0 + edge_7_3_0_0 + edge_8_3_0_0
   + edge_9_3_0_0 + edge_10_3_0_0 + edge_12_3_0_0 + edge_13_3_0_0
   + edge_14_3_0_0 + edge_15_3_0_0 + edge_16_3_0_0 = 1
 consume_one_flow_unit_3: flow_0_3_0_0 + flow_1_3_0_0 + flow_2_3_0_0
   - flow_3_1_0_0 - flow_3_2_0_0 - flow_3_4_0_0 - flow_3_5_0_0
   - flow_3_6_0_0 - flow_3_7_0_0 - flow_3_8_0_0 - flow_3_9_0_0
   - flow_3_10_0_0 - flow_3_11_0_0 - flow_3_12_0_0 - flow_3_13_0_0
   - flow_3_14_0_0 - flow_3_15_0_0 - flow_3_16_0_0 - flow_3_17_0_0
   + flow_4_3_0_0 + flow_5_3_0_0 + flow_6_3_0_0 + flow_7_3_0_0
   + flow_8_3_0_0 + flow_9_3_0_0 + flow_10_3_0_0 + flow_12_3_0_0
   + flow_13_3_0_0 + flow_14_3_0_0 + flow_15_3_0_0 + flow_16_3_0_0 = 1
 one_parent_4: edge_0_4_0_0 + edge_1_4_0_0 + edge_2_4_0_0 + edge_3_4_0_0
   + edge_5_4_0_0 + edge_6_4_0_0 + edge_7_4_0_0 + edge_8_4_0_0
   + edge_10_4_0_0 + edge_12_4_0_0 + edge_13_4_0_0 + edge_14_4_0_0
   + edge_15_4_0_0 + edge_16_4_0_0 = 1
 consume_one_flow_unit_4: flow_0_4_0_0 + flow_1_4_0_0 + flow_2_4_0_0
   + flow_3_4_0_0 - flow_4_1_0_0 - flow_4_2_0_0 - flow_4_3_0_0
   - flow_4_5_0_0 - flow_4_6_0_0 - flow_4_7_0_0 - flow_4_8_0_0
   - flow_4_13_0_0 - flow_4_15_0_0 + flow_5_4_0_0 + flow_6_4_0_0
   + flow_7_4_0_0 + flow_8_4_0_0 + flow_10_4_0_0 + flow_12_4_0_0
   + flow_13_4_0_0 + flow_14_4_0_0 + flow_15_4_0_0 + flow_16_4_0_0 = 1
 one_parent_5: edge_0_5_0_0 + edge_1_5_0_0 + edge_2_5_0_0 + edge_3_5_0_0
   + edge_4_5_0_0 + edge_6_5_0_0 + edge_7_5_0_0 + edge_8_5_0_0
   + edge_9_5_0_0 + edge_10_5_0_0 + edge_12_5_0_0 + edge_13_5_0_0
   + edge_14_5_0_0 + edge_16_5_0_0 = 1
 consume_one_flow_unit_5: flow_0_5_0_0 + flow_1_5_0_0 + flow_2_5_0_0
   + flow_3_5_0_0 + flow_4_5_0_0 - flow_5_1_0_0 - flow_5_2_0_0
   - flow_5_3_0_0 - flow_5_4_0_0 - flow_5_6_0_0 - flow_5_7_0_0
   - flow_5_8_0_0 - flow_5_9_0_0 - flow_5_10_0_0 - flow_5_11_0_0
   - flow_5_12_0_0 - flow_5_13_0_0 - flow_5_14_0_0 - flow_5_16_0_0
   - flow_5_17_0_0 + flow_6_5_0_0 + flow_7_5_0_0 + flow_8_5_0_0
   + flow_9_5_0_0 + flow_10_5_0_0 + flow_12_5_0_0 + flow_13_5_0_0
   + flow_14_5_0_0 + flow_16_5_0_0 = 1
 one_parent_6: edge_0_6_0_0 + edge_1_6_0_0 + edge_2_6_0_0 + edge_3_6_0_0
   + edge_4_6_0_0 + edge_5_6_0_0 + edge_7_6_0_0 + edge_8_6_0_0
   + edge_9_6_0_0 + edge_10_6_0_0 + edge_12_6_0_0 + edge_13_6_0_0
   + edge_14_6_0_0 + edge_15_6_0_0 + edge_16_6_0_0 = 1
 consume_one_flow_unit_6: flow_0_6_0_0 + flow_1_6_0_0 + flow_2_6_0_0
   + flow_3_6_0_0 + flow_4_6_0_0 + flow_5_6_0_0 - flow_6_1_0_0
   - flow_6_2_0_0 - flow_6_3_0_0 - flow_6_4_0_0 - flow_6_5_0_0
   - flow_6_7_0_0 - flow_6_8_0_0 - flow_6_9_0_0 - flow_6_10_0_0
   - flow_6_11_0_0 - flow_6_12_0_0 - flow_6_13_0_0 - flow_6_14_0_0
   - flow_6_15_0_0 - flow_6_16_0_0 - flow_6_17_0_0 + flow_7_6_0_0
   + flow_8_6_0_0 + flow_9_6_0_0 + flow_10_6_0_0 + flow_12_6_0_0
   + flow_13_6_0_0 + flow_14_6_0_0 + flow_15_6_0_0 + flow_16_6_0_0 = 1
 one_parent_7: edge_1_7_0_0 + edge_2_7_0_0 + edge_3_7_0_0 + edge_4_7_0_0
   + edge_5_7_0_0 + edge_6_7_0_0 + edge_8_7_0_0 + edge_9_7_0_0
   + edge_10_7_0_0 + edge_12_7_0_0 + edge_13_7_0_0 + edge_16_7_0_0 = 1
 consume_one_flow_unit_7: flow_1_7_0_0 + flow_2_7_0_0 + flow_3_7_0_0
   + flow_4_7_0_0 + flow_5_7_0_0 + flow_6_7_0_0 - flow_7_1_0_0
   - flow_7_2_0_0 - flow_7_3_0_0 - flow_7_4_0_0 - flow_7_5_0_0
   - flow_7_6_0_0 - flow_7_8_0_0 - flow_7_10_0_0 + flow_8_7_0_0
   + flow_9_7_0_0 + flow_10_7_0_0 + flow_12_7_0_0 + flow_13_7_0_0
   + flow_16_7_0_0 = 1
 one_parent_8: edge_0_8_0_0 + edge_1_8_0_0 + edge_2_8_0_0 + edge_3_8_0_0
   + edge_4_8_0_0 + edge_5_8_0_0 + edge_6_8_0_0 + edge_7_8_0_0
   + edge_9_8_0_0 + edge_10_8_0_0 + edge_12_8_0_0 + edge_13_8_0_0
   + edge_14_8_0_0 + edge_15_8_0_0 + edge_16_8_0_0 = 1
 consume_one_flow_unit_8: flow_0_8_0_0 + flow_1_8_0_0 + flow_2_8_0_0
   + flow_3_8_0_0 + flow_4_8_0_0 + flow_5_8_0_0 + flow_6_8_0_0
   + flow_7_8_0_0 - flow_8_1_0_0 - flow_8_2_0_0 - flow_8_3_0_0
   - flow_8_4_0_0 - flow_8_5_0_0 - flow_8_6_0_0 - flow_8_7_0_0
   - flow_8_9_0_0 - flow_8_10_0_0 - flow_8_11_0_0 - flow_8_12_0_0
   - flow_8_13_0_0 - flow_8_14_0_0 - flow_8_15_0_0 - flow_8_16_0_0
   - flow_8_17_0_0 + flow_9_8_0_0 + flow_10_8_0_0 + flow_12_8_0_0
   + flow_13_8_0_0 + flow_14_8_0_0 + flow_15_8_0_0 + flow_16_8_0_0 = 1
 one_parent_9: edge_1_9_0_0 + edge_2_9_0_0 + edge_3_9_0_0 + edge_5_9_0_0
   + edge_6_9_0_0 + edge_8_9_0_0 + edge_10_9_0_0 + edge_11_9_0_0
   + edge_12_9_0_0 + edge_13_9_0_0 = 1
 consume_one_flow_unit_9: flow_1_9_0_0 + flow_2_9_0_0 + flow_3_9_0_0
   + flow_5_9_0_0 + flow_6_9_0_0 + flow_8_9_0_0 - flow_9_1_0_0
   - flow_9_3_0_0 - flow_9_5_0_0 - flow_9_6_0_0 - flow_9_7_0_0
   - flow_9_8_0_0 - flow_9_10_0_0 - flow_9_11_0_0 - flow_9_12_0_0
   + flow_10_9_0_0 + flow_11_9_0_0 + flow_12_9_0_0 + flow_13_9_0_0 = 1
 one_parent_10: edge_0_10_0_0 + edge_1_10_0_0 + edge_2_10_0_0
   + edge_3_10_0_0 + edge_5_10_0_0 + edge_6_10_0_0 + edge_7_10_0_0
   + edge_8_10_0_0 + edge_9_10_0_0 + edge_11_10_0_0 + edge_12_10_0_0
   + edge_13_10_0_0 + edge_14_10_0_0 + edge_15_10_0_0 + edge_16_10_0_0 = 1
 consume_one_flow_unit_10: flow_0_10_0_0 + flow_1_10_0_0 + flow_2_10_0_0
   + flow_3_10_0_0 + flow_5_10_0_0 + flow_6_10_0_0 + flow_7_10_0_0
   + flow_8_10_0_0 + flow_9_10_0_0 - flow_10_1_0_0 - flow_10_2_0_0
   - flow_10_3_0_0 - flow_10_4_0_0 - flow_10_5_0_0 - flow_10_6_0_0
   - flow_10_7_0_0 - flow_10_8_0_0 - flow_10_9_0_0 - flow_10_11_0_0
   - flow_10_12_0_0 - flow_10_13_0_0 - flow_10_14_0_0 - flow_10_15_0_0
   - flow_10_16_0_0 - flow_10_17_0_0 + flow_11_10_0_0 + flow_12_10_0_0
   + flow_13_10_0_0 + flow_14_10_0_0 + flow_15_10_0_0 + flow_16_10_0_0 = 1
 one_parent_11: edge_3_11_0_0 + edge_5_11_0_0 + edge_6_11_0_0
   + edge_8_11_0_0 + edge_9_11_0_0 + edge_10_11_0_0 + edge_12_11_0_0
   + edge_13_11_0_0 + edge_16_11_0_0 = 1
 consume_one_flow_unit_11: flow_3_11_0_0 + flow_5_11_0_0 + flow_6_11_0_0
   + flow_8_11_0_0 + flow_9_11_0_0 + flow_10_11_0_0 - flow_11_9_0_0
   - flow_11_10_0_0 - flow_11_12_0_0 - flow_11_13_0_0 - flow_11_14_0_0
   - flow_11_16_0_0 - flow_11_17_0_0 + flow_12_11_0_0 + flow_13_11_0_0
   + flow_16_11_0_0 = 1
 one_parent_12: edge_0_12_0_0 + edge_1_12_0_0 + edge_2_12_0_0
   + edge_3_12_0_0 + edge_5_12_0_0 + edge_6_12_0_0 + edge_8_12_0_0
   + edge_9_12_0_0 + edge_10_12_0_0 + edge_11_12_0_0 + edge_13_12_0_0
   + edge_14_12_0_0 + edge_15_12_0_0 + edge_16_12_0_0 + edge_17_12_0_0 = 1
 consume_one_flow_unit_12: flow_0_12_0_0 + flow_1_12_0_0 + flow_2_12_0_0
   + flow_3_12_0_0 + flow_5_12_0_0 + flow_6_12_0_0 + flow_8_12_0_0
   + flow_9_12_0_0 + flow_10_12_0_0 + flow_11_12_0_0 - flow_12_1_0_0
   - flow_12_2_0_0 - flow_12_3_0_0 - flow_12_4_0_0 - flow_12_5_0_0
   - flow_12_6_0_0 - flow_12_7_0_0 - flow_12_8_0_0 - flow_12_9_0_0
   - flow_12_10_0_0 - flow_12_11_0_0 - flow_12_13_0_0 - flow_12_14_0_0
   - flow_12_16_0_0 - flow_12_17_0_0 + flow_13_12_0_0 + flow_14_12_0_0
   + flow_15_12_0_0 + flow_16_12_0_0 + flow_17_12_0_0 = 1
 one_parent_13: edge_0_13_0_0 + edge_1_13_0_0 + edge_2_13_0_0
   + edge_3_13_0_0 + edge_4_13_0_0 + edge_5_13_0_0 + edge_6_13_0_0
   + edge_8_13_0_0 + edge_10_13_0_0 + edge_11_13_0_0 + edge_12_13_0_0
   + edge_14_13_0_0 + edge_15_13_0_0 + edge_16_13_0_0 = 1
 consume_one_flow_unit_13: flow_0_13_0_0 + flow_1_13_0_0 + flow_2_13_0_0
   + flow_3_13_0_0 + flow_4_13_0_0 + flow_5_13_0_0 + flow_6_13_0_0
   + flow_8_13_0_0 + flow_10_13_0_0 + flow_11_13_0_0 + flow_12_13_0_0
   - flow_13_1_0_0 - flow_13_2_0_0 - flow_13_3_0_0 - flow_13_4_0_0
   - flow_13_5_0_0 - flow_13_6_0_0 - flow_13_7_0_0 - flow_13_8_0_0
   - flow_13_9_0_0 - flow_13_10_0_0 - flow_13_11_0_0 - flow_13_12_0_0
   - flow_13_14_0_0 - flow_13_15_0_0 - flow_13_16_0_0 - flow_13_17_0_0
   + flow_14_13_0_0 + flow_15_13_0_0 + flow_16_13_0_0 = 1
 one_parent_14: edge_1_14_0_0 + edge_2_14_0_0 + edge_3_14_0_0
   + edge_5_14_0_0 + edge_6_14_0_0 + edge_8_14_0_0 + edge_10_14_0_0
   + edge_11_14_0_0 + edge_12_14_0_0 + edge_13_14_0_0 + edge_15_14_0_0
   + edge_16_14_0_0 + edge_17_14_0_0 = 1
 consume_one_flow_unit_14: flow_1_14_0_0 + flow_2_14_0_0 + flow_3_14_0_0
   + flow_5_14_0_0 + flow_6_14_0_0 + flow_8_14_0_0 + flow_10_14_0_0
   + flow_11_14_0_0 + flow_12_14_0_0 + flow_13_14_0_0 - flow_14_2_0_0
   - flow_14_3_0_0 - flow_14_4_0_0 - flow_14_5_0_0 - flow_14_6_0_0
   - flow_14_8_0_0 - flow_14_10_0_0 - flow_14_12_0_0 - flow_14_13_0_0
   - flow_14_15_0_0 - flow_14_16_0_0 - flow_14_17_0_0 + flow_15_14_0_0
   + flow_16_14_0_0 + flow_17_14_0_0 = 1
 one_parent_15: edge_2_15_0_0 + edge_3_15_0_0 + edge_4_15_0_0
   + edge_6_15_0_0 + edge_8_15_0_0 + edge_10_15_0_0 + edge_13_15_0_0
   + edge_14_15_0_0 + edge_16_15_0_0 = 1
 consume_one_flow_unit_15: flow_2_15_0_0 + flow_3_15_0_0 + flow_4_15_0_0
   + flow_6_15_0_0 + flow_8_15_0_0 + flow_10_15_0_0 + flow_13_15_0_0
   + flow_14_15_0_0 - flow_15_2_0_0 - flow_15_3_0_0 - flow_15_4_0_0
   - flow_15_6_0_0 - flow_15_8_0_0 - flow_15_10_0_0 - flow_15_12_0_0
   - flow_15_13_0_0 - flow_15_14_0_0 - flow_15_16_0_0 - flow_15_17_0_0
   + flow_16_15_0_0 = 1
 one_parent_16: edge_0_16_0_0 + edge_2_16_0_0 + edge_3_16_0_0
   + edge_5_16_0_0 + edge_6_16_0_0 + edge_8_16_0_0 + edge_10_16_0_0
   + edge_11_16_0_0 + edge_12_16_0_0 + edge_13_16_0_0 + edge_14_16_0_0
   + edge_15_16_0_0 + edge_17_16_0_0 = 1
 consume_one_flow_unit_16: flow_0_16_0_0 + flow_2_16_0_0 + flow_3_16_0_0
   + flow_5_16_0_0 + flow_6_16_0_0 + flow_8_16_0_0 + flow_10_16_0_0
   + flow_11_16_0_0 + flow_12_16_0_0 + flow_13_16_0_0 + flow_14_16_0_0
   + flow_15_16_0_0 - flow_16_1_0_0 - flow_16_2_0_0 - flow_16_3_0_0
   - flow_16_4_0_0 - flow_16_5_0_0 - flow_16_6_0_0 - flow_16_7_0_0
   - flow_16_8_0_0 - flow_16_10_0_0 - flow_16_11_0_0 - flow_16_12_0_0
   - flow_16_13_0_0 - flow_16_14_0_0 - flow_16_15_0_0 - flow_16_17_0_0
   + flow_17_16_0_0 = 1
 one_parent_17: edge_1_17_0_0 + edge_2_17_0_0 + edge_3_17_0_0
   + edge_5_17_0_0 + edge_6_17_0_0 + edge_8_17_0_0 + edge_10_17_0_0
   + edge_11_17_0_0 + edge_12_17_0_0 + edge_13_17_0_0 + edge_14_17_0_0
   + edge_15_17_0_0 + edge_16_17_0_0 = 1
 consume_one_flow_unit_17: flow_1_17_0_0 + flow_2_17_0_0 + flow_3_17_0_0
   + flow_5_17_0_0 + flow_6_17_0_0 + flow_8_17_0_0 + flow_10_17_0_0
   + flow_11_17_0_0 + flow_12_17_0_0 + flow_13_17_0_0 + flow_14_17_0_0
   + flow_15_17_0_0 + flow_16_17_0_0 - flow_17_12_0_0 - flow_17_14_0_0
   - flow_17_16_0_0 = 1
 root_flow: flow_0_1_0_0 + flow_0_2_0_0 + flow_0_3_0_0 + flow_0_4_0_0
   + flow_0_5_0_0 + flow_0_6_0_0 + flow_0_8_0_0 + flow_0_10_0_0
   + flow_0_12_0_0 + flow_0_13_0_0 + flow_0_16_0_0 = 17
 inactive_no_flow_0_1_0_0: flow_0_1_0_0 - 1000 edge_0_1_0_0 <= 0
 inactive_no_flow_0_2_0_0: flow_0_2_0_0 - 1000 edge_0_2_0_0 <= 0
 inactive_no_flow_0_3_0_0: flow_0_3_0_0 - 1000 edge_0_3_0_0 <= 0
 inactive_no_flow_0_4_0_0: flow_0_4_0_0 - 1000 edge_0_4_0_0 <= 0
 inactive_no_flow_0_5_0_0: flow_0_5_0_0 - 1000 edge_0_5_0_0 <= 0
 inactive_no_flow_0_6_0_0: flow_0_6_0_0 - 1000 edge_0_6_0_0 <= 0
 inactive_no_flow_0_8_0_0: flow_0_8_0_0 - 1000 edge_0_8_0_0 <= 0
 inactive_no_flow_0_10_0_0: flow_0_10_0_0 - 1000 edge_0_10_0_0 <= 0
 inactive_no_flow_0_12_0_0: flow_0_12_0_0 - 1000 edge_0_12_0_0 <= 0
 inactive_no_flow_0_13_0_0: flow_0_13_0_0 - 1000 edge_0_13_0_0 <= 0
 inactive_no_flow_0_16_0_0: flow_0_16_0_0 - 1000 edge_0_16_0_0 <= 0
 inactive_no_flow_1_2_0_0: flow_1_2_0_0 - 1000 edge_1_2_0_0 <= 0
 inactive_no_flow_1_3_0_0: flow_1_3_0_0 - 1000 edge_1_3_0_0 <= 0
 inactive_no_flow_1_4_0_0: flow_1_4_0_0 - 1000 edge_1_4_0_0 <= 0
 inactive_no_flow_1_5_0_0: flow_1_5_0_0 - 1000 edge_1_5_0_0 <= 0
 inactive_no_flow_1_6_0_0: flow_1_6_0_0 - 1000 edge_1_6_0_0 <= 0
 inactive_no_flow_1_7_0_0: flow_1_7_0_0 - 1000 edge_1_7_0_0 <= 0
 inactive_no_flow_1_8_0_0: flow_1_8_0_0 - 1000 edge_1_8_0_0 <= 0
 inactive_no_flow_1_9_0_0: flow_1_9_0_0 - 1000 edge_1_9_0_0 <= 0
 inactive_no_flow_1_10_0_0: flow_1_10_0_0 - 1000 edge_1_10_0_0 <= 0
 inactive_no_flow_1_12_0_0: flow_1_12_0_0 - 1000 edge_1_12_0_0 <= 0
 inactive_no_flow_1_13_0_0: flow_1_13_0_0 - 1000 edge_1_13_0_0 <= 0
 inactive_no_flow_1_14_0_0: flow_1_14_0_0 - 1000 edge_1_14_0_0 <= 0
 inactive_no_flow_1_17_0_0: flow_1_17_0_0 - 1000 edge_1_17_0_0 <= 0
 inactive_no_flow_2_1_0_0: flow_2_1_0_0 - 1000 edge_2_1_0_0 <= 0
 inactive_no_flow_2_3_0_0: flow_2_3_0_0 - 1000 edge_2_3_0_0 <= 0
 inactive_no_flow_2_4_0_0: flow_2_4_0_0 - 1000 edge_2_4_0_0 <= 0
 inactive_no_flow_2_5_0_0: flow_2_5_0_0 - 1000 edge_2_5_0_0 <= 0
 inactive_no_flow_2_6_0_0: flow_2_6_0_0 - 1000 edge_2_6_0_0 <= 0
 inactive_no_flow_2_7_0_0: flow_2_7_0_0 - 1000 edge_2_7_0_0 <= 0
 inactive_no_flow_2_8_0_0: flow_2_8_0_0 - 1000 edge_2_8_0_0 <= 0
 inactive_no_flow_2_9_0_0: flow_2_9_0_0 - 1000 edge_2_9_0_0 <= 0
 inactive_no_flow_2_10_0_0: flow_2_10_0_0 - 1000 edge_2_10_0_0 <= 0
 inactive_no_flow_2_12_0_0: flow_2_12_0_0 - 1000 edge_2_12_0_0 <= 0
 inactive_no_flow_2_13_0_0: flow_2_13_0_0 - 1000 edge_2_13_0_0 <= 0
 inactive_no_flow_2_14_0_0: flow_2_14_0_0 - 1000 edge_2_14_0_0 <= 0
 inactive_no_flow_2_15_0_0: flow_2_15_0_0 - 1000 edge_2_15_0_0 <= 0
 inactive_no_flow_2_16_0_0: flow_2_16_0_0 - 1000 edge_2_16_0_0 <= 0
 inactive_no_flow_2_17_0_0: flow_2_17_0_0 - 1000 edge_2_17_0_0 <= 0
 inactive_no_flow_3_1_0_0: flow_3_1_0_0 - 1000 edge_3_1_0_0 <= 0
 inactive_no_flow_3_2_0_0: flow_3_2_0_0 - 1000 edge_3_2_0_0 <= 0
 inactive_no_flow_3_4_0_0: flow_3_4_0_0 - 1000 edge_3_4_0_0 <= 0
 inactive_no_flow_3_5_0_0: flow_3_5_0_0 - 1000 edge_3_5_0_0 <= 0
 inactive_no_flow_3_6_0_0: flow_3_6_0_0 - 1000 edge_3_6_0_0 <= 0
 inactive_no_flow_3_7_0_0: flow_3_7_0_0 - 1000 edge_3_7_0_0 <= 0
 inactive_no_flow_3_8_0_0: flow_3_8_0_0 - 1000 edge_3_8_0_0 <= 0
 inactive_no_flow_3_9_0_0: flow_3_9_0_0 - 1000 edge_3_9_0_0 <= 0
 inactive_no_flow_3_10_0_0: flow_3_10_0_0 - 1000 edge_3_10_0_0 <= 0
 inactive_no_flow_3_11_0_0: flow_3_11_0_0 - 1000 edge_3_11_0_0 <= 0
 inactive_no_flow_3_12_0_0: flow_3_12_0_0 - 1000 edge_3_12_0_0 <= 0
 inactive_no_flow_3_13_0_0: flow_3_13_0_0 - 1000 edge_3_13_0_0 <= 0
 inactive_no_flow_3_14_0_0: flow_3_14_0_0 - 1000 edge_3_14_0_0 <= 0
 inactive_no_flow_3_15_0_0: flow_3_15_0_0 - 1000 edge_3_15_0_0 <= 0
 inactive_no_flow_3_16_0_0: flow_3_16_0_0 - 1000 edge_3_16_0_0 <= 0
 inactive_no_flow_3_17_0_0: flow_3_17_0_0 - 1000 edge_3_17_0_0 <= 0
 inactive_no_flow_4_1_0_0: flow_4_1_0_0 - 1000 edge_4_1_0_0 <= 0
 inactive_no_flow_4_2_0_0: flow_4_2_0_0 - 1000 edge_4_2_0_0 <= 0
 inactive_no_flow_4_3_0_0: flow_4_3_0_0 - 1000 edge_4_3_0_0 <= 0
 inactive_no_flow_4_5_0_0: flow_4_5_0_0 - 1000 edge_4_5_0_0 <= 0
 inactive_no_flow_4_6_0_0: flow_4_6_0_0 - 1000 edge_4_6_0_0 <= 0
 inactive_no_flow_4_7_0_0: flow_4_7_0_0 - 1000 edge_4_7_0_0 <= 0
 inactive_no_flow_4_8_0_0: flow_4_8_0_0 - 1000 edge_4_8_0_0 <= 0
 inactive_no_flow_4_13_0_0: flow_4_13_0_0 - 1000 edge_4_13_0_0 <= 0
 inactive_no_flow_4_15_0_0: flow_4_15_0_0 - 1000 edge_4_15_0_0 <= 0
 inactive_no_flow_5_1_0_0: flow_5_1_0_0 - 1000 edge_5_1_0_0 <= 0
 inactive_no_flow_5_2_0_0: flow_5_2_0_0 - 1000 edge_5_2_0_0 <= 0
 inactive_no_flow_5_3_0_0: flow_5_3_0_0 - 1000 edge_5_3_0_0 <= 0
 inactive_no_flow_5_4_0_0: flow_5_4_0_0 - 1000 edge_5_4_0_0 <= 0
 inactive_no_flow_5_6_0_0: flow_5_6_0_0 - 1000 edge_5_6_0_0 <= 0
 inactive_no_flow_5_7_0_0: flow_5_7_0_0 - 1000 edge_5_7_0_0 <= 0
 inactive_no_flow_5_8_0_0: flow_5_8_0_0 - 1000 edge_5_8_0_0 <= 0
 inactive_no_flow_5_9_0_0: flow_5_9_0_0 - 1000 edge_5_9_0_0 <= 0
 inactive_no_flow_5_10_0_0: flow_5_10_0_0 - 1000 edge_5_10_0_0 <= 0
 inactive_no_flow_5_11_0_0: flow_5_11_0_0 - 1000 edge_5_11_0_0 <= 0
 inactive_no_flow_5_12_0_0: flow_5_12_0_0 - 1000 edge_5_12_0_0 <= 0
 inactive_no_flow_5_13_0_0: flow_5_13_0_0 - 1000 edge_5_13_0_0 <= 0
 inactive_no_flow_5_14_0_0: flow_5_14_0_0 - 1000 edge_5_14_0_0 <= 0
 inactive_no_flow_5_16_0_0: flow_5_16_0_0 - 1000 edge_5_16_0_0 <= 0
 inactive_no_flow_5_17_0_0: flow_5_17_0_0 - 1000 edge_5_17_0_0 <= 0
 inactive_no_flow_6_1_0_0: flow_6_1_0_0 - 1000 edge_6_1_0_0 <= 0
 inactive_no_flow_6_2_0_0: flow_6_2_0_0 - 1000 edge_6_2_0_0 <= 0
 inactive_no_flow_6_3_0_0: flow_6_3_0_0 - 1000 edge_6_3_0_0 <= 0
 inactive_no_flow_6_4_0_0: flow_6_4_0_0 - 1000 edge_6_4_0_0 <= 0
 inactive_no_flow_6_5_0_0: flow_6_5_0_0 - 1000 edge_6_5_0_0 <= 0
 inactive_no_flow_6_7_0_0: flow_6_7_0_0 - 1000 edge_6_7_0_0 <= 0
 inactive_no_flow_6_8_0_0: flow_6_8_0_0 - 1000 edge_6_8_0_0 <= 0
 inactive_no_flow_6_9_0_0: flow_6_9_0_0 - 1000 edge_6_9_0_0 <= 0
 inactive_no_flow_6_10_0_0: flow_6_10_0_0 - 1000 edge_6_10_0_0 <= 0
 inactive_no_flow_6_11_0_0: flow_6_11_0_0 - 1000 edge_6_11_0_0 <= 0
 inactive_no_flow_6_12_0_0: flow_6_12_0_0 - 1000 edge_6_12_0_0 <= 0
 inactive_no_flow_6_13_0_0: flow_6_13_0_0 - 1000 edge_6_13_0_0 <= 0
 inactive_no_flow_6_14_0_0: flow_6_14_0_0 - 1000 edge_6_14_0_0 <= 0
 inactive_no_flow_6_15_0_0: flow_6_15_0_0 - 1000 edge_6_15_0_0 <= 0
 inactive_no_flow_6_16_0_0: flow_6_16_0_0 - 1000 edge_6_16_0_0 <= 0
 inactive_no_flow_6_17_0_0: flow_6_17_0_0 - 1000 edge_6_17_0_0 <= 0
 inactive_no_flow_7_1_0_0: flow_7_1_0_0 - 1000 edge_7_1_0_0 <= 0
 inactive_no_flow_7_2_0_0: flow_7_2_0_0 - 1000 edge_7_2_0_0 <= 0
 inactive_no_flow_7_3_0_0: flow_7_3_0_0 - 1000 edge_7_3_0_0 <= 0
 inactive_no_flow_7_4_0_0: flow_7_4_0_0 - 1000 edge_7_4_0_0 <= 0
 inactive_no_flow_7_5_0_0: flow_7_5_0_0 - 1000 edge_7_5_0_0 <= 0
 inactive_no_flow_7_6_0_0: flow_7_6_0_0 - 1000 edge_7_6_0_0 <= 0
 inactive_no_flow_7_8_0_0: flow_7_8_0_0 - 1000 edge_7_8_0_0 <= 0
 inactive_no_flow_7_10_0_0: flow_7_10_0_0 - 1000 edge_7_10_0_0 <= 0
 inactive_no_flow_8_1_0_0: flow_8_1_0_0 - 1000 edge_8_1_0_0 <= 0
 inactive_no_flow_8_2_0_0: flow_8_2_0_0 - 1000 edge_8_2_0_0 <= 0
 inactive_no_flow_8_3_0_0: flow_8_3_0_0 - 1000 edge_8_3_0_0 <= 0
 inactive_no_flow_8_4_0_0: flow_8_4_0_0 - 1000 edge_8_4_0_0 <= 0
 inactive_no_flow_8_5_0_0: flow_8_5_0_0 - 1000 edge_8_5_0_0 <= 0
 inactive_no_flow_8_6_0_0: flow_8_6_0_0 - 1000 edge_8_6_0_0 <= 0
 inactive_no_flow_8_7_0_0: flow_8_7_0_0 - 1000 edge_8_7_0_0 <= 0
 inactive_no_flow_8_9_0_0: flow_8_9_0_0 - 1000 edge_8_9_0_0 <= 0
 inactive_no_flow_8_10_0_0: flow_8_10_0_0 - 1000 edge_8_10_0_0 <= 0
 inactive_no_flow_8_11_0_0: flow_8_11_0_0 - 1000 edge_8_11_0_0 <= 0
 inactive_no_flow_8_12_0_0: flow_8_12_0_0 - 1000 edge_8_12_0_0 <= 0
 inactive_no_flow_8_13_0_0: flow_8_13_0_0 - 1000 edge_8_13_0_0 <= 0
 inactive_no_flow_8_14_0_0: flow_8_14_0_0 - 1000 edge_8_14_0_0 <= 0
 inactive_no_flow_8_15_0_0: flow_8_15_0_0 - 1000 edge_8_15_0_0 <= 0
 inactive_no_flow_8_16_0_0: flow_8_16_0_0 - 1000 edge_8_16_0_0 <= 0
 inactive_no_flow_8_17_0_0: flow_8_17_0_0 - 1000 edge_8_17_0_0 <= 0
 inactive_no_flow_9_1_0_0: flow_9_1_0_0 - 1000 edge_9_1_0_0 <= 0
 inactive_no_flow_9_3_0_0: flow_9_3_0_0 - 1000 edge_9_3_0_0 <= 0
 inactive_no_flow_9_5_0_0: flow_9_5_0_0 - 1000 edge_9_5_0_0 <= 0
 inactive_no_flow_9_6_0_0: flow_9_6_0_0 - 1000 edge_9_6_0_0 <= 0
 inactive_no_flow_9_7_0_0: flow_9_7_0_0 - 1000 edge_9_7_0_0 <= 0
 inactive_no_flow_9_8_0_0: flow_9_8_0_0 - 1000 edge_9_8_0_0 <= 0
 inactive_no_flow_9_10_0_0: flow_9_10_0_0 - 1000 edge_9_10_0_0 <= 0
 inactive_no_flow_9_11_0_0: flow_9_11_0_0 - 1000 edge_9_11_0_0 <= 0
 inactive_no_flow_9_12_0_0: flow_9_12_0_0 - 1000 edge_9_12_0_0 <= 0
 inactive_no_flow_10_1_0_0: flow_10_1_0_0 - 1000 edge_10_1_0_0 <= 0
 inactive_no_flow_10_2_0_0: flow_10_2_0_0 - 1000 edge_10_2_0_0 <= 0
 inactive_no_flow_10_3_0_0: flow_10_3_0_0 - 1000 edge_10_3_0_0 <= 0
 inactive_no_flow_10_4_0_0: flow_10_4_0_0 - 1000 edge_10_4_0_0 <= 0
 inactive_no_flow_10_5_0_0: flow_10_5_0_0 - 1000 edge_10_5_0_0 <= 0
 inactive_no_flow_10_6_0_0: flow_10_6_0_0 - 1000 edge_10_6_0_0 <= 0
 inactive_no_flow_10_7_0_0: flow_10_7_0_0 - 1000 edge_10_7_0_0 <= 0
 inactive_no_flow_10_8_0_0: flow_10_8_0_0 - 1000 edge_10_8_0_0 <= 0
 inactive_no_flow_10_9_0_0: flow_10_9_0_0 - 1000 edge_10_9_0_0 <= 0
 inactive_no_flow_10_11_0_0: flow_10_11_0_0 - 1000 edge_10_11_0_0 <= 0
 inactive_no_flow_10_12_0_0: flow_10_12_0_0 - 1000 edge_10_12_0_0 <= 0
 inactive_no_flow_10_13_0_0: flow_10_13_0_0 - 1000 edge_10_13_0_0 <= 0
 inactive_no_flow_10_14_0_0: flow_10_14_0_0 - 1000 edge_10_14_0_0 <= 0
 inactive_no_flow_10_15_0_0: flow_10_15_0_0 - 1000 edge_10_15_0_0 <= 0
 inactive_no_flow_10_16_0_0: flow_10_16_0_0 - 1000 edge_10_16_0_0 <= 0
 inactive_no_flow_10_17_0_0: flow_10_17_0_0 - 1000 edge_10_17_0_0 <= 0
 inactive_no_flow_11_9_0_0: flow_11_9_0_0 - 1000 edge_11_9_0_0 <= 0
 inactive_no_flow_11_10_0_0: flow_11_10_0_0 - 1000 edge_11_10_0_0 <= 0
 inactive_no_flow_11_12_0_0: flow_11_12_0_0 - 1000 edge_11_12_0_0 <= 0
 inactive_no_flow_11_13_0_0: flow_11_13_0_0 - 1000 edge_11_13_0_0 <= 0
 inactive_no_flow_11_14_0_0: flow_11_14_0_0 - 1000 edge_11_14_0_0 <= 0
 inactive_no_flow_11_16_0_0: flow_11_16_0_0 - 1000 edge_11_16_0_0 <= 0
 inactive_no_flow_11_17_0_0: flow_11_17_0_0 - 1000 edge_11_17_0_0 <= 0
 inactive_no_flow_12_1_0_0: flow_12_1_0_0 - 1000 edge_12_1_0_0 <= 0
 inactive_no_flow_12_2_0_0: flow_12_2_0_0 - 1000 edge_12_2_0_0 <= 0
 inactive_no_flow_12_3_0_0: flow_12_3_0_0 - 1000 edge_12_3_0_0 <= 0
 inactive_no_flow_12_4_0_0: flow_12_4_0_0 - 1000 edge_12_4_0_0 <= 0
 inactive_no_flow_12_5_0_0: flow_12_5_0_0 - 1000 edge_12_5_0_0 <= 0
 inactive_no_flow_12_6_0_0: flow_12_6_0_0 - 1000 edge_12_6_0_0 <= 0
 inactive_no_flow_12_7_0_0: flow_12_7_0_0 - 1000 edge_12_7_0_0 <= 0
 inactive_no_flow_12_8_0_0: flow_12_8_0_0 - 1000 edge_12_8_0_0 <= 0
 inactive_no_flow_12_9_0_0: flow_12_9_0_0 - 1000 edge_12_9_0_0 <= 0
 inactive_no_flow_12_10_0_0: flow_12_10_0_0 - 1000 edge_12_10_0_0 <= 0
 inactive_no_flow_12_11_0_0: flow_12_11_0_0 - 1000 edge_12_11_0_0 <= 0
 inactive_no_flow_12_13_0_0: flow_12_13_0_0 - 1000 edge_12_13_0_0 <= 0
 inactive_no_flow_12_14_0_0: flow_12_14_0_0 - 1000 edge_12_14_0_0 <= 0
 inactive_no_flow_12_16_0_0: flow_12_16_0_0 - 1000 edge_12_16_0_0 <= 0
 inactive_no_flow_12_17_0_0: flow_12_17_0_0 - 1000 edge_12_17_0_0 <= 0
 inactive_no_flow_13_1_0_0: flow_13_1_0_0 - 1000 edge_13_1_0_0 <= 0
 inactive_no_flow_13_2_0_0: flow_13_2_0_0 - 1000 edge_13_2_0_0 <= 0
 inactive_no_flow_13_3_0_0: flow_13_3_0_0 - 1000 edge_13_3_0_0 <= 0
 inactive_no_flow_13_4_0_0: flow_13_4_0_0 - 1000 edge_13_4_0_0 <= 0
 inactive_no_flow_13_5_0_0: flow_13_5_0_0 - 1000 edge_13_5_0_0 <= 0
 inactive_no_flow_13_6_0_0: flow_13_6_0_0 - 1000 edge_13_6_0_0 <= 0
 inactive_no_flow_13_7_0_0: flow_13_7_0_0 - 1000 edge_13_7_0_0 <= 0
 inactive_no_flow_13_8_0_0: flow_13_8_0_0 - 1000 edge_13_8_0_0 <= 0
 inactive_no_flow_13_9_0_0: flow_13_9_0_0 - 1000 edge_13_9_0_0 <= 0
 inactive_no_flow_13_10_0_0: flow_13_10_0_0 - 1000 edge_13_10_0_0 <= 0
 inactive_no_flow_13_11_0_0: flow_13_11_0_0 - 1000 edge_13_11_0_0 <= 0
 inactive_no_flow_13_12_0_0: flow_13_12_0_0 - 1000 edge_13_12_0_0 <= 0
 inactive_no_flow_13_14_0_0: flow_13_14_0_0 - 1000 edge_13_14_0_0 <= 0
 inactive_no_flow_13_15_0_0: flow_13_15_0_0 - 1000 edge_13_15_0_0 <= 0
 inactive_no_flow_13_16_0_0: flow_13_16_0_0 - 1000 edge_13_16_0_0 <= 0
 inactive_no_flow_13_17_0_0: flow_13_17_0_0 - 1000 edge_13_17_0_0 <= 0
 inactive_no_flow_14_2_0_0: flow_14_2_0_0 - 1000 edge_14_2_0_0 <= 0
 inactive_no_flow_14_3_0_0: flow_14_3_0_0 - 1000 edge_14_3_0_0 <= 0
 inactive_no_flow_14_4_0_0: flow_14_4_0_0 - 1000 edge_14_4_0_0 <= 0
 inactive_no_flow_14_5_0_0: flow_14_5_0_0 - 1000 edge_14_5_0_0 <= 0
 inactive_no_flow_14_6_0_0: flow_14_6_0_0 - 1000 edge_14_6_0_0 <= 0
 inactive_no_flow_14_8_0_0: flow_14_8_0_0 - 1000 edge_14_8_0_0 <= 0
 inactive_no_flow_14_10_0_0: flow_14_10_0_0 - 1000 edge_14_10_0_0 <= 0
 inactive_no_flow_14_12_0_0: flow_14_12_0_0 - 1000 edge_14_12_0_0 <= 0
 inactive_no_flow_14_13_0_0: flow_14_13_0_0 - 1000 edge_14_13_0_0 <= 0
 inactive_no_flow_14_15_0_0: flow_14_15_0_0 - 1000 edge_14_15_0_0 <= 0
 inactive_no_flow_14_16_0_0: flow_14_16_0_0 - 1000 edge_14_16_0_0 <= 0
 inactive_no_flow_14_17_0_0: flow_14_17_0_0 - 1000 edge_14_17_0_0 <= 0
 inactive_no_flow_15_2_0_0: flow_15_2_0_0 - 1000 edge_15_2_0_0 <= 0
 inactive_no_flow_15_3_0_0: flow_15_3_0_0 - 1000 edge_15_3_0_0 <= 0
 inactive_no_flow_15_4_0_0: flow_15_4_0_0 - 1000 edge_15_4_0_0 <= 0
 inactive_no_flow_15_6_0_0: flow_15_6_0_0 - 1000 edge_15_6_0_0 <= 0
 inactive_no_flow_15_8_0_0: flow_15_8_0_0 - 1000 edge_15_8_0_0 <= 0
 inactive_no_flow_15_10_0_0: flow_15_10_0_0 - 1000 edge_15_10_0_0 <= 0
 inactive_no_flow_15_12_0_0: flow_15_12_0_0 - 1000 edge_15_12_0_0 <= 0
 inactive_no_flow_15_13_0_0: flow_15_13_0_0 - 1000 edge_15_13_0_0 <= 0
 inactive_no_flow_15_14_0_0: flow_15_14_0_0 - 1000 edge_15_14_0_0 <= 0
 inactive_no_flow_15_16_0_0: flow_15_16_0_0 - 1000 edge_15_16_0_0 <= 0
 inactive_no_flow_15_17_0_0: flow_15_17_0_0 - 1000 edge_15_17_0_0 <= 0
 inactive_no_flow_16_1_0_0: flow_16_1_0_0 - 1000 edge_16_1_0_0 <= 0
 inactive_no_flow_16_2_0_0: flow_16_2_0_0 - 1000 edge_16_2_0_0 <= 0
 inactive_no_flow_16_3_0_0: flow_16_3_0_0 - 1000 edge_16_3_0_0 <= 0
 inactive_no_flow_16_4_0_0: flow_16_4_0_0 - 1000 edge_16_4_0_0 <= 0
 inactive_no_flow_16_5_0_0: flow_16_5_0_0 - 1000 edge_16_5_0_0 <= 0
 inactive_no_flow_16_6_0_0: flow_16_6_0_0 - 1000 edge_16_6_0_0 <= 0
 inactive_no_flow_16_7_0_0: flow_16_7_0_0 - 1000 edge_16_7_0_0 <= 0
 inactive_no_flow_16_8_0_0: flow_16_8_0_0 - 1000 edge_16_8_0_0 <= 0
 inactive_no_flow_16_10_0_0: flow_16_10_0_0 - 1000 edge_16_10_0_0 <= 0
 inactive_no_flow_16_11_0_0: flow_16_11_0_0 - 1000 edge_16_11_0_0 <= 0
 inactive_no_flow_16_12_0_0: flow_16_12_0_0 - 1000 edge_16_12_0_0 <= 0
 inactive_no_flow_16_13_0_0: flow_16_13_0_0 - 1000 edge_16_13_0_0 <= 0
 inactive_no_flow_16_14_0_0: flow_16_14_0_0 - 1000 edge_16_14_0_0 <= 0
 inactive_no_flow_16_15_0_0: flow_16_15_0_0 - 1000 edge_16_15_0_0 <= 0
 inactive_no_flow_16_17_0_0: flow_16_17_0_0 - 1000 edge_16_17_0_0 <= 0
 inactive_no_flow_17_12_0_0: flow_17_12_0_0 - 1000 edge_17_12_0_0 <= 0
 inactive_no_flow_17_14_0_0: flow_17_14_0_0 - 1000 edge_17_14_0_0 <= 0
 inactive_no_flow_17_16_0_0: flow_17_16_0_0 - 1000 edge_17_16_0_0 <= 0
Bounds
Binaries
 edge_0_1_0_0 edge_0_2_0_0 edge_0_3_0_0 edge_0_4_0_0 edge_0_5_0_0
 edge_0_6_0_0 edge_0_8_0_0 edge_0_10_0_0 edge_0_12_0_0 edge_0_13_0_0
 edge_0_16_0_0 edge_1_2_0_0 edge_1_3_0_0 edge_1_4_0_0 edge_1_5_0_0
 edge_1_6_0_0 edge_1_7_0_0 edge_1_8_0_0 edge_1_9_0_0 edge_1_10_0_0
 edge_1_12_0_0 edge_1_13_0_0 edge_1_14_0_0 edge_1_17_0_0 edge_2_1_0_0
 edge_2_3_0_0 edge_2_4_0_0 edge_2_5_0_0 edge_2_6_0_0 edge_2_7_0_0
 edge_2_8_0_0 edge_2_9_0_0 edge_2_10_0_0 edge_2_12_0_0 edge_2_13_0_0
 edge_2_14_0_0 edge_2_15_0_0 edge_2_16_0_0 edge_2_17_0_0 edge_3_1_0_0
 edge_3_2_0_0 edge_3_4_0_0 edge_3_5_0_0 edge_3_6_0_0 edge_3_7_0_0
 edge_3_8_0_0 edge_3_9_0_0 edge_3_10_0_0 edge_3_11_0_0 edge_3_12_0_0
 edge_3_13_0_0 edge_3_14_0_0 edge_3_15_0_0 edge_3_16_0_0 edge_3_17_0_0
 edge_4_1_0_0 edge_4_2_0_0 edge_4_3_0_0 edge_4_5_0_0 edge_4_6_0_0
 edge_4_7_0_0 edge_4_8_0_0 edge_4_13_0_0 edge_4_15_0_0 edge_5_1_0_0
 edge_5_2_0_0 edge_5_3_0_0 edge_5_4_0_0 edge_5_6_0_0 edge_5_7_0_0
 edge_5_8_0_0 edge_5_9_0_0 edge_5_10_0_0 edge_5_11_0_0 edge_5_12_0_0
 edge_5_13_0_0 edge_5_14_0_0 edge_5_16_0_0 edge_5_17_0_0 edge_6_1_0_0
 edge_6_2_0_0 edge_6_3_0_0 edge_6_4_0_0 edge_6_5_0_0 edge_6_7_0_0
 edge_6_8_0_0 edge_6_9_0_0 edge_6_10_0_0 edge_6_11_0_0 edge_6_12_0_0
 edge_6_13_0_0 edge_6_14_0_0 edge_6_15_0_0 edge_6_16_0_0 edge_6_17_0_0
 edge_7_1_0_0 edge_7_2_0_0 edge_7_3_0_0 edge_7_4_0_0 edge_7_5_0_0
 edge_7_6_0_0 edge_7_8_0_0 edge_7_10_0_0 edge_8_1_0_0 edge_8_2_0_0
 edge_8_3_0_0 edge_8_4_0_0 edge_8_5_0_0 edge_8_6_0_0 edge_8_7_0_0
 edge_8_9_0_0 edge_8_10_0_0 edge_8_11_0_0 edge_8_12_0_0 edge_8_13_0_0
 edge_8_14_0_0 edge_8_15_0_0 edge_8_16_0_0 edge_8_17_0_0 edge_9_1_0_0
 edge_9_3_0_0 edge_9_5_0_0 edge_9_6_0_0 edge_9_7_0_0 edge_9_8_0_0
 edge_9_10_0_0 edge_9_11_0_0 edge_9_12_0_0 edge_10_1_0_0 edge_10_2_0_0
 edge_10_3_0_0 edge_10_4_0_0 edge_10_5_0_0 edge_10_6_0_0 edge_10_7_0_0
 edge_10_8_0_0 edge_10_9_0_0 edge_10_11_0_0 edge_10_12_0_0 edge_10_13_0_0
 edge_10_14_0_0 edge_10_15_0_0 edge_10_16_0_0 edge_10_17_0_0 edge_11_9_0_0
 edge_11_10_0_0 edge_11_12_0_0 edge_11_13_0_0 edge_11_14_0_0 edge_11_16_0_0
 edge_11_17_0_0 edge_12_1_0_0 edge_12_2_0_0 edge_12_3_0_0 edge_12_4_0_0
 edge_12_5_0_0 edge_12_6_0_0 edge_12_7_0_0 edge_12_8_0_0 edge_12_9_0_0
 edge_12_10_0_0 edge_12_11_0_0 edge_12_13_0_0 edge_12_14_0_0 edge_12_16_0_0
 edge_12_17_0_0 edge_13_1_0_0 edge_13_2_0_0 edge_13_3_0_0 edge_13_4_0_0
 edge_13_5_0_0 edge_13_6_0_0 edge_13_7_0_0 edge_13_8_0_0 edge_13_9_0_0
 edge_13_10_0_0 edge_13_11_0_0 edge_13_12_0_0 edge_13_14_0_0 edge_13_15_0_0
 edge_13_16_0_0 edge_13_17_0_0 edge_14_2_0_0 edge_14_3_0_0 edge_14_4_0_0
 edge_14_5_0_0 edge_14_6_0_0 edge_14_8_0_0 edge_14_10_0_0 edge_14_12_0_0
 edge_14_13_0_0 edge_14_15_0_0 edge_14_16_0_0 edge_14_17_0_0 edge_15_2_0_0
 edge_15_3_0_0 edge_15_4_0_0 edge_15_6_0_0 edge_15_8_0_0 edge_15_10_0_0
 edge_15_12_0_0 edge_15_13_0_0 edge_15_14_0_0 edge_15_16_0_0 edge_15_17_0_0
 edge_16_1_0_0 edge_16_2_0_0 edge_16_3_0_0 edge_16_4_0_0 edge_16_5_0_0
 edge_16_6_0_0 edge_16_7_0_0 edge_16_8_0_0 edge_16_10_0_0 edge_16_11_0_0
 edge_16_12_0_0 edge_16_13_0_0 edge_16_14_0_0 edge_16_15_0_0 edge_16_17_0_0
 edge_17_12_0_0 edge_17_14_0_0 edge_17_16_0_0
End
